RT is False
Default write of storage_offers_DA.csv just to have a file (but constraint should be inactive)
Reading model...
...model read.
creating competitive generators file...
...competitive generators recorded.
Loading data...
.. day-ahead data with real-time VRE data read.
Compiling instance...
...instance created.
Creating Offer Mitigation (model will solve as dispatch if TRUE)...
NOTE: storage offers will not be mitigated
...storage offer mitigation file created
Converting model to MPEC...
...converted
NOTE: initial MIP solve with only storage competitive to get feasible solution
Solving...

Welcome to IBM(R) ILOG(R) CPLEX(R) Interactive Optimizer 12.9.0.0
  with Simplex, Mixed Integer & Barrier Optimizers
5725-A06 5725-A29 5724-Y48 5724-Y49 5724-Y54 5724-Y55 5655-Y21
Copyright IBM Corp. 1988, 2019.  All Rights Reserved.

Type 'help' for a list of available commands.
Type 'help' followed by a command name for more
information on commands.

CPLEX> Logfile 'cplex.log' closed.
Logfile 'C:\Users\llavin\Desktop\test919\logs\tmp06oyc7_o.cplex.log' open.
CPLEX> New value for parallel optimization mode: -1
CPLEX> New value for mixed integer optimality gap tolerance: 0.01
CPLEX> New value for integrality tolerance: 1e-09
CPLEX> New value for feasibility tolerance: 0.01
CPLEX> New value for deterministic time limit in ticks: 75000
CPLEX> Problem 'C:\Users\llavin\Desktop\test919\logs\tmpcml8morn.pyomo.lp' read.
Read time = 0.23 sec. (14.73 ticks)
CPLEX> Problem name         : C:\Users\llavin\Desktop\test919\logs\tmpcml8morn.pyomo.lp
Objective sense      : Maximize
Variables            :   53805  [Nneg: 1,  Box: 22000,  Free: 4464,
                                 Binary: 27340]
Objective nonzeros   :    9022
Linear constraints   :  123205  [Less: 41346,  Greater: 59096,  Equal: 22763]
  Nonzeros           :  291746
  RHS nonzeros       :   67484

Variables            : Min LB: -5000.000        Max UB: 1000000.       
Objective nonzeros   : Min   : 0.008333333      Max   : 2500.000       
Linear constraints   :
  Nonzeros           : Min   : 0.008333333      Max   : 1000000.       
  RHS nonzeros       : Min   : 0.008333333      Max   : 1000000.       
CPLEX> CPXPARAM_Parallel                                -1
CPXPARAM_Simplex_Tolerances_Feasibility          0.01
CPXPARAM_DetTimeLimit                            75000
CPXPARAM_MIP_Tolerances_MIPGap                   0.01
CPXPARAM_MIP_Tolerances_Integrality              1.0000000000000001e-09
Tried aggregator 3 times.
MIP Presolve eliminated 88687 rows and 19008 columns.
MIP Presolve added 3368 rows and 0 columns.
MIP Presolve modified 24827 coefficients.
Aggregator did 12975 substitutions.
Reduced MIP has 24911 rows, 21263 columns, and 71074 nonzeros.
Reduced MIP has 8403 binaries, 0 generals, 0 SOSs, and 0 indicators.
Presolve time = 0.28 sec. (173.58 ticks)
Probing fixed 376 vars, tightened 2828 bounds.
Probing time = 1.17 sec. (865.97 ticks)
Tried aggregator 2 times.
MIP Presolve eliminated 847 rows and 753 columns.
MIP Presolve modified 2206 coefficients.
Aggregator did 42 substitutions.
Reduced MIP has 24022 rows, 20468 columns, and 68496 nonzeros.
Reduced MIP has 8027 binaries, 0 generals, 0 SOSs, and 0 indicators.
Presolve time = 0.11 sec. (68.40 ticks)
Probing fixed 0 vars, tightened 1 bounds.
Probing time = 0.05 sec. (20.83 ticks)
Clique table members: 6348.
MIP emphasis: balance optimality and feasibility.
MIP search method: dynamic search.
Parallel mode: opportunistic, using up to 32 threads.
Root relaxation solution time = 0.39 sec. (507.35 ticks)

        Nodes                                         Cuts/
   Node  Left     Objective  IInf  Best Integer    Best Bound    ItCnt     Gap

      0     0        0.0000   642                      0.0000     5536         
*     0     0      integral     0        0.0000        0.0000     5536    0.00%
Elapsed time = 3.83 sec. (2876.29 ticks, tree = 0.01 MB, solutions = 1)

Root node processing (before b&c):
  Real time             =    3.84 sec. (2878.24 ticks)
Parallel b&c, 32 threads:
  Real time             =    0.00 sec. (0.00 ticks)
  Sync time (average)   =    0.00 sec.
  Wait time (average)   =    0.00 sec.
                          ------------
Total (root+branch&cut) =    3.84 sec. (2878.24 ticks)

Solution pool: 1 solution saved.

MIP - Integer optimal solution:  Objective =  4.3655745685e-10
Solution time =    3.88 sec.  Iterations = 5536  Nodes = 0
Deterministic time = 2878.39 ticks  (742.81 ticks/sec)

CPLEX> Incumbent solution written to file 'C:\Users\llavin\Desktop\test919\logs\tmpo_mo4niy.cplex.sol'.
CPLEX> NOTE: no warmstart specified for MIP iteration, default behavior is true
NOTE: resolving with all competitive generators using storage-only solution to warmstart
Solving...

Welcome to IBM(R) ILOG(R) CPLEX(R) Interactive Optimizer 12.9.0.0
  with Simplex, Mixed Integer & Barrier Optimizers
5725-A06 5725-A29 5724-Y48 5724-Y49 5724-Y54 5724-Y55 5655-Y21
Copyright IBM Corp. 1988, 2019.  All Rights Reserved.

Type 'help' for a list of available commands.
Type 'help' followed by a command name for more
information on commands.

CPLEX> Logfile 'cplex.log' closed.
Logfile 'C:\Users\llavin\Desktop\test919\logs\tmpvex_xjpl.cplex.log' open.
CPLEX> New value for parallel optimization mode: -1
CPLEX> New value for mixed integer optimality gap tolerance: 0.01
CPLEX> New value for integrality tolerance: 1e-09
CPLEX> New value for feasibility tolerance: 0.01
CPLEX> New value for deterministic time limit in ticks: 75000
CPLEX> Problem 'C:\Users\llavin\Desktop\test919\logs\tmp5uqzhd1s.pyomo.lp' read.
Read time = 0.27 sec. (14.75 ticks)
CPLEX> MIP start file 'C:\Users\llavin\Desktop\test919\logs\tmpsmf40m4f.cplex.mst' read.
CPLEX> Problem name         : C:\Users\llavin\Desktop\test919\logs\tmp5uqzhd1s.pyomo.lp
Objective sense      : Maximize
Variables            :   54525  [Nneg: 1,  Box: 22720,  Free: 4464,
                                 Binary: 27340]
Objective nonzeros   :    9718
Linear constraints   :  123205  [Less: 41346,  Greater: 59096,  Equal: 22763]
  Nonzeros           :  291746
  RHS nonzeros       :   67484

Variables            : Min LB: -5000.000        Max UB: 1000000.       
Objective nonzeros   : Min   : 0.008333333      Max   : 2500.000       
Linear constraints   :
  Nonzeros           : Min   : 0.008333333      Max   : 1000000.       
  RHS nonzeros       : Min   : 0.008333333      Max   : 1000000.       
CPLEX> CPXPARAM_Parallel                                -1
CPXPARAM_Simplex_Tolerances_Feasibility          0.01
CPXPARAM_DetTimeLimit                            75000
CPXPARAM_MIP_Tolerances_MIPGap                   0.01
CPXPARAM_MIP_Tolerances_Integrality              1.0000000000000001e-09
Warning:  No solution found from 1 MIP starts.
Retaining values of one MIP start for possible repair.
Tried aggregator 3 times.
MIP Presolve eliminated 88687 rows and 19728 columns.
MIP Presolve added 3368 rows and 0 columns.
MIP Presolve modified 24827 coefficients.
Aggregator did 12975 substitutions.
Reduced MIP has 24911 rows, 21263 columns, and 71074 nonzeros.
Reduced MIP has 8403 binaries, 0 generals, 0 SOSs, and 0 indicators.
Presolve time = 0.28 sec. (173.94 ticks)
Probing fixed 376 vars, tightened 2828 bounds.
Probing time = 1.17 sec. (865.97 ticks)
Tried aggregator 2 times.
MIP Presolve eliminated 847 rows and 753 columns.
MIP Presolve modified 2206 coefficients.
Aggregator did 42 substitutions.
Reduced MIP has 24022 rows, 20468 columns, and 68496 nonzeros.
Reduced MIP has 8027 binaries, 0 generals, 0 SOSs, and 0 indicators.
Presolve time = 0.11 sec. (68.41 ticks)
Probing fixed 0 vars, tightened 1 bounds.
Probing time = 0.05 sec. (20.83 ticks)
Clique table members: 6348.
MIP emphasis: balance optimality and feasibility.
MIP search method: dynamic search.
Parallel mode: opportunistic, using up to 32 threads.
Root relaxation solution time = 0.33 sec. (260.42 ticks)

        Nodes                                         Cuts/
   Node  Left     Objective  IInf  Best Integer    Best Bound    ItCnt     Gap

      0     0   106613.8152  1761                 106613.8152     5612         
      0     0   104424.9260   792                   Cuts: 600     5961         
      0     0   104171.3221   657                   Cuts: 300     6113         
      0     0   101758.3522   587                   Cuts: 130     6206         
      0     0   101705.7135   574                    Cuts: 86     6233         
      0     0   101705.7135   558                    Cuts: 73     6252         
      0     0   101670.1612   551                    Cuts: 50     6265         
      0     0    95645.3769   532                    Cuts: 79     6336         
      0     0    95581.6325   528                    Cuts: 65     6363         
      0     0    95570.3304   526                    Cuts: 54     6381         
      0     0    94945.5680   522                    Cuts: 57     6433         
      0     0    94939.6653   519                    Cuts: 62     6457         
      0     0    91496.1582   514                    Cuts: 72     6490         
      0     0    91027.7823   512                    Cuts: 58     6509         
      0     0    91020.4190   498                    Cuts: 70     6542         
      0     0    90063.8628   517                   Cuts: 150     6622         
      0     0    89999.2625   510                    Cuts: 91     6664         
      0     0    89998.4705   508                    Cuts: 66     6683         
Repair heuristic found nothing.
      0     7    infeasible                          Cuts: 44     7030         
Elapsed time = 14.50 sec. (8832.71 ticks, tree = 0.02 MB, solutions = 0)
    381    69    45561.2363   437                  74083.1469     8906         
    871   178    infeasible                        74083.1469    10976         
   1250   559    infeasible                        74083.1469    22761         
   1784   906   -16145.2176   360                  74083.1469    31011         
   2543  1434   -14437.5986   313                  74083.1469    36631         
   3674  1407    -7097.9131   340                  74083.1469    36483         
   4588  2116   -25413.7724   323                  74083.1469    40748         
   5278  2951   -25338.0874   310                  74083.1469    41655         
   5914  3776    -8152.7582   296                  74083.1469    48831         
  10241  7445    22684.3605   338                  74083.1469    56027         
Elapsed time = 32.86 sec. (11934.64 ticks, tree = 59.76 MB, solutions = 4)
* 11071+ 4580                        -9348.0425    74083.1469           892.50%
  13702  1441    30293.5663   379    17446.6422    73297.5037    60097  320.12%
  14379  2661    infeasible          17446.6422    65445.7222    89087  275.12%
  15932   234    24058.0769   150    17446.6422    45036.4281   104171  158.14%
  16516   476        cutoff          17446.6422    31146.4996   136925   78.52%
  18511   127        cutoff          17446.6422    17830.9197   172884    2.20%

GUB cover cuts applied:  2
Clique cuts applied:  5
Cover cuts applied:  82
Implied bound cuts applied:  28
Flow cuts applied:  302
Mixed integer rounding cuts applied:  90
Gomory fractional cuts applied:  189

Root node processing (before b&c):
  Real time             =   13.13 sec. (8815.45 ticks)
Parallel b&c, 32 threads:
  Real time             =   49.30 sec. (13844.71 ticks)
  Sync time (average)   =    2.42 sec.
  Wait time (average)   =    0.24 sec.
                          ------------
Total (root+branch&cut) =   62.42 sec. (22660.16 ticks)

Solution pool: 8 solutions saved.

MIP - Integer optimal, tolerance (0.01/1e-06):  Objective =  1.7446642170e+04
Current MIP best bound =  1.7617589362e+04 (gap = 170.947, 0.98%)
Solution time =   62.45 sec.  Iterations = 175632  Nodes = 19198 (114)
Deterministic time = 22660.31 ticks  (362.84 ticks/sec)

CPLEX> Incumbent solution written to file 'C:\Users\llavin\Desktop\test919\logs\tmpz6zoy_wa.cplex.sol'.
CPLEX> Exporting results... 
